&CONTROL
  calculation = 'relax',
  prefix = 'candidate_05_NbCSe_H',
  pseudo_dir = './pseudos',
  outdir = './tmp',
  tstress = .true.,
  tprnfor = .true.,
/
&SYSTEM
  ibrav = 0,
  nat = 4,
  ntyp = 4,
  ecutwfc = 35,
  ecutrho = 280,
  occupations = 'smearing',
  smearing = 'mp',
  degauss = 0.02,
  assume_isolated = '2D',
/
&ELECTRONS
  conv_thr = 1.0d-7,
  mixing_beta = 0.35,
/
&IONS
  ion_dynamics = 'bfgs',
/
&CELL
  cell_dofree = '2Dxy',
/
ATOMIC_SPECIES
  C     12.0110 C.pbe-n-rrkjus_psl.1.0.0.UPF
  H      1.0080 H.pbe-rrkjus_psl.1.0.0.UPF
  Nb    92.9060 Nb.pbe-spn-rrkjus_psl.1.0.0.UPF
  Se    78.9710 Se.pbe-n-rrkjus_psl.1.0.0.UPF
CELL_PARAMETERS angstrom
      3.46635881     0.00000000     0.00000000
     -1.73317940     3.00195479     0.00000000
      0.00000000     0.00000000    18.00000000
ATOMIC_POSITIONS angstrom
  Nb     0.00000000     0.00000000     0.00000000
  Se     1.73317940     1.00065160     1.16089652
  C      1.73317940     1.00065160    -1.16089652
  H      1.73317940     1.00065160     2.26089652
K_POINTS automatic
  4 4 1 0 0 0
