&INPUTPH
  prefix = 'candidate_05_VNSe',
  outdir = './tmp',
  tr2_ph = 1.0d-14,
  ldisp = .false.,
  epsil = .false.,
/
0.0 0.0 0.0
