&CONTROL
  calculation = 'relax',
  prefix = 'candidate_04_VSSe',
  pseudo_dir = './pseudos',
  outdir = './tmp',
  tstress = .true.,
  tprnfor = .true.,
/
&SYSTEM
  ibrav = 0,
  nat = 3,
  ntyp = 3,
  ecutwfc = 35,
  ecutrho = 280,
  occupations = 'smearing',
  smearing = 'mp',
  degauss = 0.02,
  assume_isolated = '2D',
/
&ELECTRONS
  conv_thr = 1.0d-7,
  mixing_beta = 0.35,
/
&IONS
  ion_dynamics = 'bfgs',
/
&CELL
  cell_dofree = '2Dxy',
/
ATOMIC_SPECIES
  S     32.0600 S.pbe-n-rrkjus_psl.1.0.0.UPF
  Se    78.9710 Se.pbe-n-rrkjus_psl.1.0.0.UPF
  V     50.9420 V.pbe-spnl-rrkjus_psl.1.0.0.UPF
CELL_PARAMETERS angstrom
      3.72089276     0.00000000     0.00000000
     -1.86044638     3.22238766     0.00000000
      0.00000000     0.00000000    18.00000000
ATOMIC_POSITIONS angstrom
  V      0.00000000     0.00000000     0.00000000
  S      1.86044638     1.07412922     1.34685377
  Se     1.86044638     1.07412922    -1.34685377
K_POINTS automatic
  4 4 1 0 0 0
