&INPUTPH
  prefix = 'candidate_04_VSSe',
  outdir = './tmp',
  tr2_ph = 1.0d-12,
  ldisp = .false.,
  epsil = .false.,
/
0.0 0.0 0.0
